PROBLEM NAME: eil51_n5
KNAPSACK DATA TYPE: uncorrelated
DIMENSION: 5
NUMBER OF ITEMS: 40
CAPACITY OF KNAPSACK: 9914
MIN SPEED: 0.1
MAX SPEED: 1
RENTING RATIO: 22.58
EDGE_WEIGHT_TYPE: CEIL_2D
NODE_COORD_SECTION	(INDEX, X, Y):
1	31	32
2	36	16
3	62	63
4	5	6
5	30	15
ITEMS SECTION	(INDEX, PROFIT, WEIGHT, ASSIGNED NODE NUMBER):
1	979	192	3
2	928	539	3
3	861	131	3
4	848	454	3
5	814	834	3
6	813	354	3
7	792	68	3
8	790	280	3
9	789	762	3
10	786	810	3
11	773	586	2
12	753	519	2
13	752	4	2
14	714	698	2
15	710	872	2
16	682	337	2
17	652	486	2
18	647	883	2
19	605	134	2
20	575	685	2
21	559	50	5
22	488	354	5
23	477	851	5
24	393	17	5
25	386	893	5
26	374	13	5
27	373	110	5
28	364	139	5
29	355	415	5
30	353	938	5
31	264	58	4
32	245	675	4
33	242	954	4
34	234	355	4
35	229	211	4
36	225	696	4
37	112	139	4
38	111	936	4
39	70	246	4
40	50	498	4
